p wcnf 100 150 151 
1 3 -67 0 
1 -61 13 0 
1 -31 53 0 
1 -94 -80 0 
1 3 -75 0 
1 -18 95 0 
1 57 -6 0 
1 -8 82 0 
1 -45 -71 0 
1 -74 -20 0 
1 -47 54 0 
1 91 -22 0 
1 -49 77 0 
1 -95 37 0 
1 -65 -2 0 
1 14 96 0 
1 22 -61 0 
1 51 15 0 
1 100 66 0 
1 41 -78 0 
1 48 14 0 
1 43 62 0 
1 -62 2 0 
1 85 18 0 
1 -29 -42 0 
1 -96 -78 0 
1 3 92 0 
1 68 45 0 
1 -59 -55 0 
1 58 28 0 
1 33 -7 0 
1 -11 5 0 
1 -8 -81 0 
1 -52 -19 0 
1 -11 -26 0 
1 56 -17 0 
1 -18 23 0 
1 -83 43 0 
1 83 96 0 
1 -63 100 0 
1 -83 -71 0 
1 53 26 0 
1 -56 -15 0 
1 35 -24 0 
1 28 -75 0 
1 -54 -81 0 
1 -12 42 0 
1 94 2 0 
1 96 -30 0 
1 66 8 0 
1 -81 -18 0 
1 59 96 0 
1 -80 63 0 
1 78 -2 0 
1 24 39 0 
1 2 20 0 
1 50 80 0 
1 33 39 0 
1 -56 52 0 
1 -53 -6 0 
1 -36 30 0 
1 49 77 0 
1 93 -95 0 
1 87 -37 0 
1 39 -64 0 
1 88 69 0 
1 26 -78 0 
1 -8 52 0 
1 -20 -56 0 
1 -85 4 0 
1 30 3 0 
1 53 -56 0 
1 37 92 0 
1 62 -15 0 
1 18 97 0 
1 -8 57 0 
1 47 -15 0 
1 -94 21 0 
1 -99 83 0 
1 -52 -57 0 
1 -26 -53 0 
1 -71 52 0 
1 -47 -18 0 
1 -1 20 0 
1 51 -16 0 
1 9 -88 0 
1 97 -59 0 
1 43 -10 0 
1 60 58 0 
1 -15 -94 0 
1 -47 -95 0 
1 -35 -45 0 
1 93 18 0 
1 76 21 0 
1 92 -56 0 
1 -14 -11 0 
1 -7 8 0 
1 -51 61 0 
1 54 89 0 
1 -94 -22 0 
1 -88 -49 0 
1 51 -90 0 
1 -35 -68 0 
1 -82 -81 0 
1 97 95 0 
1 75 -89 0 
1 17 28 0 
1 88 -25 0 
1 -19 -62 0 
1 86 -63 0 
1 -100 3 0 
1 -58 -86 0 
1 92 -33 0 
1 52 99 0 
1 50 62 0 
1 -86 -87 0 
1 -93 29 0 
1 99 -62 0 
1 -84 -32 0 
1 42 -80 0 
1 32 -93 0 
1 -66 -43 0 
1 7 -16 0 
1 72 49 0 
1 -2 88 0 
1 -7 56 0 
1 96 75 0 
1 70 -79 0 
1 24 -1 0 
1 71 70 0 
1 -61 19 0 
1 -22 98 0 
1 -88 92 0 
1 -90 -36 0 
1 -47 -3 0 
1 85 -22 0 
1 13 58 0 
1 51 -29 0 
1 -25 -87 0 
1 -17 53 0 
1 -84 82 0 
1 -12 56 0 
1 -49 -27 0 
1 -40 -57 0 
1 -26 -85 0 
1 -76 -84 0 
1 -5 56 0 
1 -60 92 0 
1 -91 -15 0 
1 95 -83 0 
